50
1000
297
297
294
280
277
270
270
269
260
255
255
254
252
250
241
237
223
222
221
217
216
211
209
209
206
204
193
192
192
191
187
182
173
172
166
165
161
160
149
148
146
139
135
131
130
125
118
116
111
102
